NAME : DD60.1869404.tour
COMMENT : Cost = 0_1869404
COMMENT : Found by LKH [Keld Helsgaun] Sun Apr 23 15:14:36 2017
TYPE : TOUR
DIMENSION : 124
TOUR_SECTION
1
8
10
68
14
70
43
74
24
103
84
45
57
105
117
40
27
87
100
22
34
82
94
48
108
37
97
50
110
123
49
109
28
88
39
99
42
102
61
25
121
53
113
85
19
79
59
119
13
73
33
93
4
64
18
78
52
112
46
106
122
38
3
98
60
56
63
120
11
23
116
71
83
7
67
35
95
36
96
9
69
20
80
41
101
31
91
51
6
66
111
124
5
65
16
76
2
32
92
55
62
12
72
115
54
114
26
86
58
118
47
107
29
17
77
21
89
15
75
81
44
104
30
90
-1
EOF
